20	5
0	1	1
1	1	9
2	1	12
3	2	19	7
4	1	11
5	1	2
6	1	13
7	1	5
8	1	10
9	1	8
10	2	15	6
11	2	14	20
12	0
13	1	3
14	1	21
15	1	21
16	1	21
17	1	21
18	1	21
19	1	21
20	1	21
21	0
0	0	0	0	0	0	0
1	5	5	2	0	1	2
2	5	0	3	1	0	5
3	10	4	0	4	1	0
4	10	5	5	3	4	4
5	4	0	0	3	4	1
6	4	0	3	4	4	4
7	5	4	4	0	4	4
8	1	0	2	4	0	5
9	3	0	0	2	3	0
10	4	4	0	4	2	3
11	4	3	3	4	0	0
12	9	4	0	0	5	5
13	1	3	4	3	3	1
14	2	0	0	1	1	2
15	3	4	3	4	2	1
16	1	2	0	2	4	3
17	2	5	1	2	1	1
18	6	1	3	1	4	4
19	8	2	4	1	0	1
20	1	1	3	0	2	0
21	0	0	0	0	0	0
6	6	6	6	6
